c Lingeling SAT Solver
c 
c Version azf 92032848c138b2f33629ad24394d60a3787a1046
c 
c Copyright (C) 2010-2014 Armin Biere JKU Linz Austria.
c All rights reserved.
c 
c released Don Mai 22 22:08:00 CEST 2014
c compiled Mon Oct  6 05:55:43 PDT 2014
c 
c gcc (Ubuntu 4.8.2-19ubuntu1) 4.8.2
c -Wall -O3 -DNDBLSCR -DNLGLOG -DNDEBUG -DNCHKSOL -DNLGLPICOSAT -DNLGLDRUPLIG
c -DNLGLYALSAT
c Linux ubuntu 3.13.0-32-generic x86_64
c 
c reading input file benchmark-sat/translations/gc-david-9.cnf
c no embedded options
c found 'p cnf 783 10527' header
c read 783 variables, 10527 clauses, 21663 literals in 0.00 seconds
c 
c  seconds         irredundant          redundant clauses agility   height
c          variables clauses conflicts large ternary binary    glue         MB
c 
c S    0.0     783    10527         0       0      0     0   0  0.0   0.0    0
c S    1.0     500     3265     40072    3445      0  1736  10 14.7  21.9    1
c S    2.0     500     3265     80158    6658      0  1736  12 17.2  25.5    3
c S    5.0     500     3265    212795    6806      0  1737  12 16.3  23.9    3
c S   10.1     500     3265    392560   19453      0  1737  14 15.1  22.5    5
c
c CAUGHT SIGNAL 2 SIGINT
c
c s UNKNOWN
c    0.711   6% simplifying
c   10.460  94% search
c ==================================
c   11.171 100% all
c 
c 479994 decisions, 42967.9 decisions/sec
c 429933 conflicts, 38486.6 conflicts/sec
c 13064794 propagations, 1.2 megaprops/sec
c 11.2 seconds, 8.3 MB
c
c CAUGHT SIGNAL 2 SIGINT
c
